HUN,8,6,976
2,16,1,29,0,3,3,3,5,15,4,28
0,7,2,23,1,24,5,19,4,25,3,29
2,18,0,25,1,1,3,16,5,26,4,8
2,24,1,28,0,10,4,18,5,8,3,13
2,22,1,25,0,15,5,22,3,15,4,29
0,30,1,24,2,28,4,12,5,28,3,14
0,24,2,28,1,16,3,9,5,6,4,27
2,11,0,1,1,2,5,14,4,19,3,9
